inputs/240.in
14
0 96 80 28 74 33 71 45 90 27 58 6 27 81 
96 0 25 28 34 74 48 27 89 77 22 40 53 33 
80 25 0 70 35 97 85 48 77 45 98 90 87 15 
28 28 70 0 77 96 14 38 99 62 31 63 81 56 
74 34 35 77 0 85 83 66 80 48 58 62 90 93 
33 74 97 96 85 0 22 26 84 80 38 62 34 35 
71 48 85 14 83 22 0 14 9 99 13 62 12 53 
45 27 48 38 66 26 14 0 46 90 60 40 22 15 
90 89 77 99 80 84 9 46 0 40 35 95 59 8 
27 77 45 62 48 80 99 90 40 0 25 15 51 96 
58 22 98 31 58 38 13 60 35 25 0 9 71 75 
6 40 90 63 62 62 62 40 95 15 9 0 100 59 
27 53 87 81 90 34 12 22 59 51 71 100 0 100 
81 33 15 56 93 35 53 15 8 96 75 59 100 0 
RBBBBRRBBRRRRB
