output/240.out
10 12 1 4 7 9 14 8 13 6 11 2 3 5 
